
Gurobi 9.5.0 (win64) logging started Tue Dec  7 11:49:48 2021

Set parameter LogFile to value "../results/logs/log_2021_12_07_11_49.csv_35_41.log"
Set parameter Method to value 3
Gurobi Optimizer version 9.5.0 build v9.5.0rc5 (win64)
Thread count: 6 physical cores, 12 logical processors, using up to 12 threads
Optimize a model with 19 rows, 230 columns and 1219 nonzeros
Model fingerprint: 0xe638d907
Variable types: 115 continuous, 115 integer (115 binary)
Coefficient statistics:
  Matrix range     [1e+00, 4e+01]
  Objective range  [1e+00, 1e+00]
  Bounds range     [1e+00, 1e+00]
  RHS range        [1e+00, 4e+01]
Found heuristic solution: objective -0.0000000
Presolve removed 12 rows and 215 columns
Presolve time: 0.00s
Presolved: 7 rows, 15 columns, 57 nonzeros
Extracted 5 lazy constraints
Variable types: 9 continuous, 6 integer (6 binary)

Root relaxation: objective 6.000000e+00, 1 iterations, 0.00 seconds (0.00 work units)

    Nodes    |    Current Node    |     Objective Bounds      |     Work
 Expl Unexpl |  Obj  Depth IntInf | Incumbent    BestBd   Gap | It/Node Time

     0     0    4.76172    0    2   -0.00000    4.76172      -     -    0s
H    0     0                       4.0000000    4.76172  19.0%     -    0s
     0     0    4.76172    0    2    4.00000    4.76172  19.0%     -    0s

Cutting planes:
  Lazy constraints: 5

Explored 1 nodes (18 simplex iterations) in 0.00 seconds (0.00 work units)
Thread count was 12 (of 12 available processors)

Solution count 2: 4 -0 

Optimal solution found (tolerance 1.00e-04)
Best objective 4.000000000000e+00, best bound 4.000000000000e+00, gap 0.0000%
